unsat
(define-fun f ((x (_ BitVec 64))) (_ BitVec 64) (im (bvand #b0000000000000000000000000000000000000000000000000000000000000001 (bvnot x)) (bvadd #b0000000000000000000000000000000000000000000000000000000000000001 (bvor #b0000000000000000000000000000000000000000000000000000000000000001 x)) (bvor #b0000000000000000000000000000000000000000000000000000000000000001 (arba x))))
0.41user 0.01system 0:00.43elapsed 99%CPU (0avgtext+0avgdata 59948maxresident)k
0inputs+8outputs (0major+9689minor)pagefaults 0swaps
